c clasp version 2.1.1
c Reading from p09.cnf
c Solving...
s SATISFIABLE

c Models        : 1+    
c Time          : 1.440s (Solving: 0.71s 1st Model: 0.70s Unsat: 0.00s)
c CPU Time      : 1.430s
c Choices       : 7263
c Conflicts     : 3946
c Restarts      : 0     

c Variables     : 206388 (Eliminated: 64605 Frozen:    0)
c Constraints   : 227572 (Binary: 65.5% Ternary: 32.9% Other:  1.6%)
c Lemmas        : 3946   (Binary:  0.2% Ternary:  1.0% Other: 98.8%)
c   Conflict    : 3946   (Average Length: 390.5) 
c   Loop        : 0      (Average Length: 0.0) 
c   Other       : 0      (Average Length: 0.0)
c   Deleted     : 0     
